Traveling Salesman Problem/TSP_generados/Aleatorio1620390953_10.tsp
NAME: Aleatorio1620390953_10.tsp
COMMENT: Randomly generated scenario
TYPE: TSP
DIMENSION: 10
EDGE_WEIGHT_TYPE: ATT
NODE_COORD_SECTION
1 30.06 2.77
2 17.93 15.19
3 5.88 18.2
4 45.39 5.3
5 1.18 43.09
6 6.89 37.77
7 48.85 17.17
8 11.29 0.39
9 35.8 46.75
10 23.06 16.11
