Traveling Salesman Problem/TSP_generados/Aleatorio1620390953_10.opt.tour
NAME: Aleatorio1620390953_10.opt.tour
COMMENT: Optimal solution for Aleatorio1620390953_10 (177.55708383238175)
TYPE: TOUR
DIMENSION: 10
TOUR_SECTION
1 10 2 8 3 6 5 9 7 4
-1
EOF
